120 189 100 194 73 111 6 197 131 66 74 158 35 128 107 198 175 196 190 28 127 57 102 110 192 21 184 172 41 22 109 167 10 88 89 16 139 138 69 152 48 169 97 166 96 104 31 93 161 125 199 155 0 49 168 174 129 80 33 148 185 37 65 7 51 137 119 179 26 23 164 87 178 12 180 78 146 40 83 136 171 14 72 38 90 53 76 42 70 187 122 121 92 3 154 43 59 52 123 117 61 34 36 195 18 191 50 118 99 29 143 1 47 140 91 116 135 144 177 54 112 86 25 162 130 147 94 55 150 27 11 114 105 103 182 81 132 46 20 181 163 113 24 19 141 9 8 101 115 4 176 2 82 39 5 17 84 58 149 63 62 153 15 151 157 183 106 68 133 156 79 193 77 173 64 159 85 95 142 188 186 13 67 32 165 44 98 30 56 71 134 160 75 126 170 60 108 124 145 45